sing20151114.12
TTAA 64121 48698
99006 29456 07004 00072 29456 04505 92763 23019 05509
85498 18834 02511 70144 11050 06011 50588 04144 03502
40761 13960 34506 30973 28962 19507 25100 39133 19509
20249 52146 26009 15429 67956 24505 10662 82550 09023
88106 82548 07514
77999=
TTCC 64125 48698
70866 70168 28020 50066 70170 26022 30381 /////
88999
77999=
TTDD 6412/ 48698
11979 78157 22954 77357 33837 79957 44814 76759 55727
75763 66697 69969 77624 68571 88570 71169 99493 70570
11392 63976 22380 59978 33358 60976 44319 56779 55319
56779
21212 11982 10513 22977 11010 33953 19003 44885 31010
55850 33011 66763 25005 77750 28510 88622 28038 99591
28533 11483 25017 22474 27513 33468 30016 44448 32021
55431 29019 66392 30028 77373 30045 88319 26534=
